(set-logic QF_SLIA)
(declare-fun var0 () String)
(declare-fun var1 () String)
(declare-fun var2 () String)
(declare-fun var4 () String)
(declare-fun var9 () String)
(declare-fun var12 () String)
(declare-fun var13 () String)
(declare-fun var14 () String)
(declare-fun var15 () String)
(declare-fun var16 () String)
(declare-fun var17 () String)
(declare-fun var18 () String)
(declare-fun var19 () String)
(declare-fun var20 () String)
(declare-fun var21 () String)
(declare-fun var22 () String)
(declare-fun var25 () String)
(declare-fun var26 () String)
(declare-fun var7 () Int)
(declare-fun var23 () Int)
(declare-fun var24 () Int)
(assert (>= (str.indexof (str.++ var1 var4) (str.substr var13 0 0) (str.indexof var14 var15 var7)) (str.indexof (str.substr var1 53 145) (str.substr var12 0 54) (str.indexof var16 var17 var7))))
(assert (str.suffixof (str.substr (str.replace (str.replace var4 var18 var14) (str.substr var1 0 54) (str.replace var12 var19 var9)) 0 1) (str.substr (str.++ (str.substr var1 0 54) (str.replace var14 var20 var13)) 53 1)))
(assert (not (<= (str.len (str.++ var14 var9)) (str.len (str.replace var12 var22 var21)))))
(assert (or (not (> var23 97)) (not (> var24 82))))
(assert (<= (str.indexof var25 var26 var7) (str.len var1)))
(assert (< (str.len var4) (str.len var1)))
(assert (= var20 "HZEL51923bHOvO4TGUTDI3DpkGFNqlsmkCOnntBPtEXnF00Tpm1oZr"))
(assert (= var14 "ITyAzCzAJXCeHZEL51923bHOvO4TGUTDI3DpkGFNqlsmkCOnntBPtEXnF00Tpm1oZr"))
(check-sat)
